min: 85 x1_1 + 27 x1_2 + 40 x1_3 + 34 x1_4 + 56 x1_5 + 42 x1_6 + 26 x2_1 + 23 x2_2 + 27 x2_3 + 49 x2_4 + 1 x2_5 + 100 x2_6 + 58 x3_1 + 69 x3_2 + 10 x3_3 + 80 x3_4 + 35 x3_5 + 97 x3_6 + 54 x4_1 + 9 x4_2 + 54 x4_3 + 21 x4_4 + 99 x4_5 + 37 x4_6 + 45 x5_1 + 52 x5_2 + 15 x5_3 + 31 x5_4 + 98 x5_5 + 40 x5_6 + 96 x6_1 + 90 x6_2 + 91 x6_3 + 48 x6_4 + 21 x6_5 + 74 x6_6;

x1_1 + x1_2 + x1_3 + x1_4 + x1_5 + x1_6 = 1366;
x2_1 + x2_2 + x2_3 + x2_4 + x2_5 + x2_6 = 2715;
x3_1 + x3_2 + x3_3 + x3_4 + x3_5 + x3_6 = 1666;
x4_1 + x4_2 + x4_3 + x4_4 + x4_5 + x4_6 = 796;
x5_1 + x5_2 + x5_3 + x5_4 + x5_5 + x5_6 = 3553;
x6_1 + x6_2 + x6_3 + x6_4 + x6_5 + x6_6 = 180;

x1_1 + x2_1 + x3_1 + x4_1 + x5_1 + x6_1 >= 1696;
x1_2 + x2_2 + x3_2 + x4_2 + x5_2 + x6_2 >= 1440;
x1_3 + x2_3 + x3_3 + x4_3 + x5_3 + x6_3 >= 4874;
x1_4 + x2_4 + x3_4 + x4_4 + x5_4 + x6_4 >= 2868;
x1_5 + x2_5 + x3_5 + x4_5 + x5_5 + x6_5 >= 2204;
x1_6 + x2_6 + x3_6 + x4_6 + x5_6 + x6_6 >= 4056;

int x1_1, x1_2, x1_3, x1_4, x1_5, x1_6, x2_1, x2_2, x2_3, x2_4, x2_5, x2_6, x3_1, x3_2, x3_3, x3_4, x3_5, x3_6, x4_1, x4_2, x4_3, x4_4, x4_5, x4_6, x5_1, x5_2, x5_3, x5_4, x5_5, x5_6, x6_1, x6_2, x6_3, x6_4, x6_5, x6_6;